c ---- [ banner ] ------------------------------------------------------------
c
c Kissat SAT Solver
c 
c Copyright (c) 2021-2024 Armin Biere University of Freiburg
c Copyright (c) 2019-2021 Armin Biere Johannes Kepler University Linz
c 
c Version 4.0.1 43f02cf3e992cb44653b35e5cb26f93281552ae0
c gcc (Ubuntu 13.2.0-23ubuntu4) 13.2.0 -W -Wall -O3 -DNDEBUG
c Thu Sep 12 12:27:46 CEST 2024 Linux abryzen9 6.8.0-41-generic x86_64
c
c ---- [ parsing ] -----------------------------------------------------------
c
c opened and reading DIMACS file:
c
c   /data/artifact/AMulet2.0_artifact/exp4/cnf_dc2_64/64_64_U2_WT_BK_Multgen_dc2.cnf
c
c parsed 'p cnf 35848 158467' header
c closing input after reading 3204306 bytes (3 MB)
c finished parsing after 0.03 seconds
c
c ---- [ options ] -----------------------------------------------------------
c
c --stable=0                       (different from default '1')
c
c ---- [ solving ] -----------------------------------------------------------
c
c  seconds switched rate     size/glue tier1  binary          remaining
c         MB reductions conflicts size  tier2    irredundant
c          level restarts redundant glue  trail          variables
c
c *  0.03 15 0 0 0  0 0   0   0 0.0 0 0 0 0 0% 4312 154153 35845 100%
c (  0.05 18 0 0 0  0 0   0   0 0.0 0 0 0 0 0% 4312 154153 35845 100%
c .  0.05 18 0 0 0  0 0   0   0 0.0 0 0 0 0 0% 4308 154153 35845 100%
c c  0.14 27 0 0 0  0 0   0   0 0.0 0 0 0 0 0% 17917 127024 29042 81%
c d  0.15 27 0 0 0  0 0   0   0 0.0 0 0 0 0 0% 4309 127024 29042 81%
c =  0.19 29 0 0 0  0 0   0   0 0.0 0 0 0 0 0% 4463 127024 28938 81%
c d  0.19 29 0 0 0  0 0   0   0 0.0 0 0 0 0 0% 4255 127024 28938 81%
c f  0.31 27 0 0 0  0 0   0   0 0.0 0 0 0 0 0% 11128 116657 32394 90%
c e  0.58 28 0 0 0  0 0   0   0 0.0 0 0 0 0 0% 3184 127392 21981 61%
c )  0.58 28 0 0 0  0 0   0   0 0.0 0 0 0 0 0% 3184 127392 21981 61%
c {  0.60 28 0 0 0  0 0   0   0 0.0 0 0 2 6 0% 3184 127392 21981 61%
c -  0.83 28 147 0 1 229 32 1000 759 2.5 12 5 3 10 17% 3244 127384 21981 61%
c -  1.37 28 200 0 2 423 48 2000 1527 3.7 22 6 3 11 26% 3255 127384 21981 61%
c c  1.56 28 263 0 2 460 44 2512 1979 3.6 21 6 3 11 25% 4225 123888 21504 60%
c d  1.57 28 263 0 2 460 44 2512 1970 3.6 21 6 3 11 25% 3271 123888 21504 60%
c u  1.59 28 263 0 2 460 44 2512 1652 3.6 21 6 3 11 25% 3217 123888 21504 60%
c v  1.61 28 263 0 2 460 44 2512 1411 3.6 21 6 3 11 25% 3217 123888 21504 60%
c w  1.65 28 263 0 2 460 44 2512 1403 3.6 21 6 3 11 25% 3217 123888 21504 60%
c x  1.68 28 263 0 2 460 44 2512 1402 3.6 21 6 3 11 25% 3317 123678 21504 60%
c =  1.79 28 263 0 2 460 44 2512 1402 3.6 21 6 3 11 25% 3719 123678 21303 59%
c
c  seconds   switched   rate       size/glue tier1     binary          remaining
c         MB  reductions conflicts       size  tier2      irredundant
c           level restarts    redundant    glue    trail          variables
c
c d  1.80 28 263 0 2 460 44 2512 1402 3.6 21 6 3 11 25% 3317 123678 21303 59%
c t  1.82 28 263 0 2 460 44 2512 1402 3.6 21 6 3 11 25% 3302 123678 21303 59%
c f  1.85 28 263 0 2 460 44 2512 1402 3.6 21 6 3 11 25% 3377 123564 21342 60%
c c  1.95 28 263 0 2 460 44 2512 1402 3.6 21 6 3 11 25% 3381 123548 21340 60%
c d  1.96 28 263 0 2 460 44 2512 1402 3.6 21 6 3 11 25% 3377 123548 21340 60%
c u  1.98 28 263 0 2 460 44 2512 1371 3.6 21 6 3 11 25% 3377 123548 21340 60%
c v  2.00 28 263 0 2 460 44 2512 1321 3.6 21 6 3 11 25% 3377 123548 21340 60%
c w  2.03 28 263 0 2 460 44 2512 1315 3.6 21 6 3 11 25% 3377 123548 21340 60%
c x  2.06 28 263 0 2 460 44 2512 1315 3.6 21 6 3 11 25% 3379 123132 21340 60%
c =  2.17 28 263 0 2 460 44 2512 1315 3.6 21 6 3 11 25% 3721 123132 21169 59%
c d  2.18 28 263 0 2 460 44 2512 1314 3.6 21 6 3 11 25% 3376 123132 21169 59%
c t  2.20 28 263 0 2 460 44 2512 1314 3.6 21 6 3 11 25% 3373 123132 21169 59%
c f  2.23 28 263 0 2 460 44 2512 1314 3.6 21 6 3 11 25% 3389 123108 21177 59%
c -  2.45 28 248 0 3 555 42 3417 1855 3.4 19 6 3 11 24% 3419 123108 21177 59%
c -  2.97 28 295 0 4 758 43 5149 3038 3.3 21 6 3 10 25% 3460 123100 21177 59%
c -  3.64 28 288 0 5 971 41 7150 4292 3.5 22 6 3 10 26% 3503 123094 21177 59%
c d  3.81 28 283 0 5 1003 40 7723 4786 3.5 22 6 3 10 27% 3494 123094 21165 59%
c u  3.85 28 283 0 5 1003 40 7723 4127 3.5 22 6 3 10 27% 3497 123094 21165 59%
c v  3.90 28 283 0 5 1003 40 7723 3574 3.5 22 6 3 10 27% 3498 123094 21165 59%
c w  3.93 28 283 0 5 1003 40 7723 3569 3.5 22 6 3 10 27% 3498 123094 21165 59%
c
c  seconds   switched    rate       size/glue tier1     binary          remaining
c         MB  reductions  conflicts       size  tier2      irredundant
c           level  restarts    redundant    glue    trail          variables
c
c x  3.97 28 283 0 5 1003 40 7723 3569 3.5 22 6 3 10 27% 3507 122922 21165 59%
c =  4.15 28 283 0 5 1003 40 7723 3569 3.5 22 6 3 10 27% 3903 122922 20967 58%
c d  4.16 28 283 0 5 1003 40 7723 3561 3.5 22 6 3 10 27% 3487 122922 20967 58%
c t  4.18 28 283 0 5 1003 40 7723 3561 3.5 22 6 3 10 27% 3473 122922 20967 58%
c f  4.22 28 283 0 5 1003 40 7723 3561 3.5 22 6 3 10 27% 3533 122832 20997 59%
c c  4.31 28 283 0 5 1003 40 7723 3560 3.5 22 6 3 10 27% 3537 122823 20995 59%
c d  4.32 28 283 0 5 1003 40 7723 3560 3.5 22 6 3 10 27% 3533 122823 20995 59%
c u  4.35 28 283 0 5 1003 40 7723 3473 3.5 22 6 3 10 27% 3531 122823 20995 59%
c v  4.37 28 283 0 5 1003 40 7723 3394 3.5 22 6 3 10 27% 3531 122823 20995 59%
c w  4.40 28 283 0 5 1003 40 7723 3386 3.5 22 6 3 10 27% 3531 122823 20995 59%
c =  4.57 28 283 0 5 1003 40 7723 3386 3.5 22 6 3 10 27% 3707 122823 20907 58%
c d  4.58 28 283 0 5 1003 40 7723 3386 3.5 22 6 3 10 27% 3531 122823 20907 58%
c t  4.60 28 283 0 5 1003 40 7723 3386 3.5 22 6 3 10 27% 3495 122823 20907 58%
c f  4.64 28 283 0 5 1003 40 7723 3386 3.5 22 6 3 10 27% 3529 122772 20924 58%
c -  4.83 28 325 0 6 1046 37 9387 4249 3.4 20 6 2 9 25% 3626 122751 20924 58%
c o  4.96 28 320 0 6 1079 37 10004 4778 3.3 20 6 2 9 25% 3649 122748 20924 58%
c -  5.54 28 327 0 7 1249 38 11837 5577 3.6 22 6 2 8 26% 3740 122747 20924 58%
c s  5.75 28 330 0 7 1295 37 12530 6193 3.6 22 6 2 8 26% 3753 118670 20924 58%
c e  5.88 28 330 0 7 1295 37 12530 6193 3.6 22 6 2 8 26% 3072 119181 20478 57%
c s  5.89 28 330 0 7 1295 37 12530 6193 3.6 22 6 2 8 26% 3073 118823 20478 57%
c
c  seconds   switched    rate        size/glue tier1    binary          remaining
c         MB  reductions   conflicts       size  tier2     irredundant
c           level  restarts     redundant    glue   trail          variables
c
c e  5.90 28 330 0 7 1295 37 12530 6193 3.6 22 6 2 8 26% 3069 118827 20477 57%
c ^  5.90 28 330 0 7 1295 37 12530 6193 3.6 22 6 2 8 26% 3069 118827 20477 57%
c -  6.33 28 340 0 8 1438 37 14482 6876 3.6 22 6 2 8 26% 3114 118827 20477 57%
c d  6.64 28 337 0 8 1519 36 15813 7969 3.6 22 6 2 8 26% 3121 118827 20458 57%
c u  6.68 28 337 0 8 1519 36 15813 7177 3.6 22 6 2 8 26% 3136 118827 20458 57%
c v  6.73 28 337 0 8 1519 36 15813 6159 3.6 22 6 2 8 26% 3137 118827 20458 57%
c w  6.78 28 337 0 8 1519 36 15813 6159 3.6 22 6 2 8 26% 3137 118827 20458 57%
c x  6.82 28 337 0 8 1519 36 15813 6159 3.6 22 6 2 8 26% 3146 118339 20458 57%
c =  7.01 28 337 0 8 1519 36 15813 6159 3.6 22 6 2 8 26% 4580 118339 19741 55%
c d  7.02 28 337 0 8 1519 36 15813 6143 3.6 22 6 2 8 26% 3110 118339 19739 55%
c t  7.04 28 337 0 8 1519 36 15813 6143 3.6 22 6 2 8 26% 3072 118339 19739 55%
c f  7.09 28 337 0 8 1519 36 15813 6143 3.6 22 6 2 8 26% 3109 118261 19758 55%
c u  7.15 28 337 0 8 1519 36 15813 5971 3.6 22 6 2 8 26% 3113 118261 19758 55%
c v  7.18 28 337 0 8 1519 36 15813 5811 3.6 22 6 2 8 26% 3113 118261 19758 55%
c w  7.26 28 337 0 8 1519 36 15813 5781 3.6 22 6 2 8 26% 3113 118261 19758 55%
c x  7.30 28 337 0 8 1519 36 15813 5781 3.6 22 6 2 8 26% 3185 117905 19758 55%
c =  7.49 28 337 0 8 1519 36 15813 5781 3.6 22 6 2 8 26% 5767 117905 18467 52%
c d  7.50 28 337 0 8 1519 36 15813 5695 3.6 22 6 2 8 26% 3108 117905 18466 52%
c t  7.52 28 337 0 8 1519 36 15813 5695 3.6 22 6 2 8 26% 3095 117905 18466 52%
c f  7.57 28 337 0 8 1519 36 15813 5695 3.6 22 6 2 8 26% 3096 117902 18467 52%
c
c  seconds   switched    rate        size/glue tier1    binary          remaining
c         MB  reductions   conflicts       size  tier2     irredundant
c           level  restarts     redundant    glue   trail          variables
c
c -  7.94 28 359 0 9 1639 37 17310 6459 3.7 22 6 2 8 25% 3125 117897 18467 52%
c o  8.35 28 332 0 9 1776 34 20244 9008 3.5 21 6 2 8 24% 3174 117894 18467 52%
c -  8.41 28 332 0 10 1794 34 20313 8276 3.6 22 6 2 8 24% 3176 117894 18467 52%
c -  9.40 28 323 0 11 2180 36 23476 10031 3.6 24 7 2 7 25% 3209 117894 18467 52%
c s  9.57 28 318 0 11 2253 35 25046 11355 3.6 24 7 2 7 24% 3258 105308 18467 52%
c e  9.65 28 318 0 11 2253 35 25046 11355 3.6 24 7 2 7 24% 2804 105917 18188 51%
c s  9.65 28 318 0 11 2253 35 25046 11355 3.6 24 7 2 7 24% 2842 105659 18188 51%
c e  9.66 28 318 0 11 2253 35 25046 11355 3.6 24 7 2 7 24% 2824 105681 18179 51%
c ^  9.66 28 318 0 11 2253 35 25046 11355 3.6 24 7 2 7 24% 2824 105681 18179 51%
c -  9.77 28 307 0 12 2298 33 26793 11044 3.5 23 7 2 7 24% 2857 105679 18179 51%
c c  9.82 28 306 0 12 2299 33 26952 11171 3.5 23 6 2 7 23% 2907 105504 18149 51%
c d  9.82 28 306 0 12 2299 33 26952 11130 3.5 23 6 2 7 23% 2847 105504 18149 51%
c u  9.85 28 306 0 12 2299 33 26952 9945 3.5 23 6 2 7 23% 2853 105504 18149 51%
c v  9.88 28 306 0 12 2299 33 26952 8808 3.5 23 6 2 7 23% 2855 105504 18149 51%
c w  9.89 28 306 0 12 2299 33 26952 8804 3.5 23 6 2 7 23% 2855 105504 18149 51%
c x  9.92 28 306 0 12 2299 33 26952 8804 3.5 23 6 2 7 23% 2874 105338 18149 51%
c = 10.08 28 306 0 12 2299 33 26952 8804 3.5 23 6 2 7 23% 5228 105338 16972 47%
c d 10.09 28 306 0 12 2299 33 26952 8631 3.5 23 6 2 7 23% 2819 105338 16972 47%
c t 10.10 28 306 0 12 2299 33 26952 8631 3.5 23 6 2 7 23% 2763 105338 16972 47%
c f 10.14 28 306 0 12 2299 33 26952 8631 3.5 23 6 2 7 23% 2822 105177 17005 47%
c
c  seconds   switched     rate        size/glue tier1    binary          remaining
c         MB   reductions   conflicts       size  tier2     irredundant
c           level   restarts     redundant    glue   trail          variables
c
c u 10.17 28 306 0 12 2299 33 26952 8380 3.5 23 6 2 7 23% 2825 105177 17005 47%
c v 10.19 28 306 0 12 2299 33 26952 8188 3.5 23 6 2 7 23% 2826 105177 17005 47%
c w 10.20 28 306 0 12 2299 33 26952 8184 3.5 23 6 2 7 23% 2826 105177 17005 47%
c x 10.23 28 306 0 12 2299 33 26952 8184 3.5 23 6 2 7 23% 2827 104764 17005 47%
c = 10.38 28 306 0 12 2299 33 26952 8184 3.5 23 6 2 7 23% 3499 104764 16669 47%
c d 10.38 28 306 0 12 2299 33 26952 8170 3.5 23 6 2 7 23% 2813 104764 16669 47%
c t 10.39 28 306 0 12 2299 33 26952 8170 3.5 23 6 2 7 23% 2801 104764 16669 47%
c f 10.42 28 306 0 12 2299 33 26952 8170 3.5 23 6 2 7 23% 2807 104749 16672 47%
c - 10.76 28 286 0 13 2485 31 30257 10033 3.4 22 6 2 7 23% 2841 104749 16672 47%
c - 11.23 28 286 0 14 2774 31 33862 12049 3.4 22 7 2 7 24% 2896 104746 16672 47%
c - 11.52 28 274 0 15 2939 30 37603 13659 3.3 21 6 2 6 23% 2976 104743 16672 47%
c o 11.85 28 272 0 15 3155 30 40451 16067 3.3 21 6 2 6 22% 3067 104731 16672 47%
c c 12.04 28 268 0 15 3262 30 41280 16838 3.3 21 6 2 6 22% 3153 104270 16593 46%
c d 12.05 28 268 0 15 3262 30 41280 16574 3.3 21 6 2 6 22% 2995 104270 16593 46%
c u 12.09 28 268 0 15 3262 30 41280 14842 3.3 21 6 2 6 22% 3024 104270 16593 46%
c v 12.12 28 268 0 15 3262 30 41280 14156 3.3 21 6 2 6 22% 3024 104270 16593 46%
c w 12.15 28 268 0 15 3262 30 41280 14156 3.3 21 6 2 6 22% 3024 104270 16593 46%
c x 12.18 29 268 0 15 3262 30 41280 14156 3.3 21 6 2 6 22% 3024 103925 16593 46%
c = 12.32 29 268 0 15 3262 30 41280 14156 3.3 21 6 2 6 22% 3136 103925 16537 46%
c d 12.33 29 268 0 15 3262 30 41280 14010 3.3 21 6 2 6 22% 2991 103925 16525 46%
c
c  seconds   switched     rate         size/glue tier1    binary          remaining
c         MB   reductions   conflicts        size  tier2     irredundant
c           level   restarts      redundant    glue   trail          variables
c
c t 12.34 29 268 0 15 3262 30 41280 14010 3.3 21 6 2 6 22% 2961 103925 16525 46%
c c 12.40 29 268 0 15 3262 30 41280 14010 3.3 21 6 2 6 22% 2982 103827 16511 46%
c d 12.40 29 268 0 15 3262 30 41280 13945 3.3 21 6 2 6 22% 2954 103827 16511 46%
c u 12.44 29 268 0 15 3262 30 41280 13428 3.3 21 6 2 6 22% 2968 103827 16511 46%
c v 12.48 29 268 0 15 3262 30 41280 12536 3.3 21 6 2 6 22% 2979 103827 16511 46%
c w 12.51 29 268 0 15 3262 30 41280 12535 3.3 21 6 2 6 22% 2979 103827 16511 46%
c x 12.53 29 268 0 15 3262 30 41280 12535 3.3 21 6 2 6 22% 2979 103818 16511 46%
c = 12.67 29 268 0 15 3262 30 41280 12535 3.3 21 6 2 6 22% 3017 103818 16492 46%
c d 12.68 29 268 0 15 3262 30 41280 12509 3.3 21 6 2 6 22% 2969 103818 16490 46%
c t 12.69 29 268 0 15 3262 30 41280 12509 3.3 21 6 2 6 22% 2966 103818 16490 46%
c - 12.72 30 267 0 16 3263 29 41476 11505 3.3 21 6 2 6 22% 2967 103818 16490 46%
c - 13.20 30 254 0 17 3553 29 45476 13508 3.2 21 7 2 6 22% 3050 103818 16490 46%
c - 13.50 30 251 0 18 3731 27 49599 15492 3.2 20 6 2 6 22% 3164 103817 16490 46%
c s 13.81 30 247 0 18 3915 27 52153 17719 3.2 20 6 2 6 22% 3228 94155 16490 46%
c e 13.89 30 247 0 18 3915 27 52153 17719 3.2 20 6 2 6 22% 2666 94982 16197 45%
c 2 13.89 30 247 0 18 3915 27 52153 17719 3.2 20 6 2 6 22% 2665 94982 16197 45%
c s 13.89 30 247 0 18 3915 27 52153 17719 3.2 20 6 2 6 22% 2676 94587 16197 45%
c e 13.89 30 247 0 18 3915 27 52153 17719 3.2 20 6 2 6 22% 2664 94594 16190 45%
c ^ 13.90 30 247 0 18 3915 27 52153 17719 3.2 20 6 2 6 22% 2664 94594 16190 45%
c - 14.06 32 248 0 19 4013 27 53841 16553 3.1 20 6 2 6 22% 2693 94594 16190 45%
c
c  seconds   switched     rate         size/glue tier1    binary         remaining
c         MB   reductions   conflicts        size  tier2     irredundant
c           level   restarts      redundant    glue   trail         variables
c
c - 14.79 32 243 0 20 4531 28 58201 18472 3.2 21 7 2 6 23% 2757 94593 16190 45%
c d 14.85 32 243 0 20 4555 28 58908 18956 3.2 21 7 2 6 23% 2714 94592 16161 45%
c u 14.90 32 243 0 20 4555 28 58908 16514 3.2 21 7 2 6 23% 2759 94592 16161 45%
c v 14.96 32 243 0 20 4555 28 58908 14776 3.2 21 7 2 6 23% 2766 94592 16161 45%
c w 14.98 32 243 0 20 4555 28 58908 14749 3.2 21 7 2 6 23% 2766 94592 16161 45%
c = 15.18 32 243 0 20 4555 28 58908 14749 3.2 21 7 2 6 23% 2910 94592 16089 45%
c d 15.18 32 243 0 20 4555 28 58908 14631 3.2 21 7 2 6 23% 2701 94592 16076 45%
c t 15.19 32 243 0 20 4555 28 58908 14631 3.2 21 7 2 6 23% 2681 94592 16076 45%
c f 15.21 32 243 0 20 4555 28 58908 14631 3.2 21 7 2 6 23% 2697 94518 16086 45%
c c 15.26 32 243 0 20 4555 28 58908 14553 3.2 21 7 2 6 23% 2836 93968 16008 45%
c d 15.26 32 243 0 20 4555 28 58908 14553 3.2 21 7 2 6 23% 2680 93968 16008 45%
c u 15.31 32 243 0 20 4555 28 58908 14059 3.2 21 7 2 6 23% 2669 93968 16008 45%
c v 15.34 32 243 0 20 4555 28 58908 13740 3.2 21 7 2 6 23% 2670 93968 16008 45%
c w 15.36 32 243 0 20 4555 28 58908 13724 3.2 21 7 2 6 23% 2670 93968 16008 45%
c x 15.40 32 243 0 20 4555 28 58908 13724 3.2 21 7 2 6 23% 2689 93438 16008 45%
c = 15.61 32 243 0 20 4555 28 58908 13724 3.2 21 7 2 6 23% 2923 93434 15891 44%
c d 15.61 32 243 0 20 4555 28 58908 13665 3.2 21 7 2 6 23% 2661 93434 15888 44%
c t 15.62 32 243 0 20 4555 28 58908 13665 3.2 21 7 2 6 23% 2630 93434 15888 44%
c - 15.90 32 247 0 21 4728 27 62673 15633 3.2 21 7 2 6 23% 2717 93434 15888 44%
c - 16.34 32 243 0 22 5046 26 67255 18030 3.2 21 6 2 6 22% 2821 93432 15888 44%
c
c  seconds   switched     rate         size/glue tier1    binary         remaining
c         MB   reductions   conflicts        size  tier2     irredundant
c           level   restarts      redundant    glue   trail         variables
c
c o 16.68 32 242 0 22 5302 26 70507 20882 3.1 20 6 2 6 22% 2872 93430 15888 44%
c - 16.88 32 241 0 23 5442 26 71945 20198 3.2 21 6 2 5 22% 2894 93430 15888 44%
c - 17.57 32 234 0 24 5905 26 76741 22187 3.2 21 7 2 5 23% 2977 93429 15888 44%
c c 17.95 32 230 0 24 6116 26 79961 24889 3.2 21 7 2 5 22% 3151 92544 15741 44%
c d 17.96 32 230 0 24 6116 26 79961 24513 3.2 21 7 2 5 22% 2857 92544 15741 44%
c u 18.00 32 230 0 24 6116 26 79961 23597 3.2 21 7 2 5 22% 2840 92544 15741 44%
c v 18.05 32 230 0 24 6116 26 79961 22583 3.2 21 7 2 5 22% 2841 92544 15741 44%
c w 18.08 32 230 0 24 6116 26 79961 22581 3.2 21 7 2 5 22% 2841 92544 15741 44%
c x 18.16 32 230 0 24 6116 26 79961 22575 3.2 21 7 2 5 22% 2867 90972 15741 44%
c = 18.42 32 230 0 24 6116 26 79961 22575 3.2 21 7 2 5 22% 4143 90972 15103 42%
c d 18.43 32 230 0 24 6116 26 79961 21652 3.2 21 7 2 5 22% 2756 90972 15103 42%
c t 18.44 32 230 0 24 6116 26 79961 21652 3.2 21 7 2 5 22% 2654 90972 15103 42%
c f 18.46 32 230 0 24 6116 26 79961 21652 3.2 21 7 2 5 22% 2681 90817 15122 42%
c u 18.56 32 230 0 24 6116 26 79961 19025 3.2 21 7 2 5 22% 2716 90817 15122 42%
c v 18.61 32 230 0 24 6116 26 79961 18236 3.2 21 7 2 5 22% 2717 90817 15122 42%
c w 18.65 32 230 0 24 6116 26 79961 18207 3.2 21 7 2 5 22% 2717 90817 15122 42%
c x 18.70 32 230 0 24 6116 26 79961 18205 3.2 21 7 2 5 22% 2745 90074 15122 42%
c = 18.96 32 230 0 24 6116 26 79961 18205 3.2 21 7 2 5 22% 3643 90074 14673 41%
c d 18.97 32 230 0 24 6116 26 79961 18078 3.2 21 7 2 5 22% 2718 90074 14673 41%
c t 18.98 32 230 0 24 6116 26 79961 18078 3.2 21 7 2 5 22% 2600 90074 14673 41%
c
c  seconds   switched     rate         size/glue tier1    binary         remaining
c         MB   reductions   conflicts        size  tier2     irredundant
c           level   restarts      redundant    glue   trail         variables
c
c f 18.99 32 230 0 24 6116 26 79961 18078 3.2 21 7 2 5 22% 2619 89925 14694 41%
c - 19.27 32 230 0 25 6315 26 81639 15915 3.2 21 7 1 5 23% 2635 89925 14694 41%
c - 19.88 32 223 0 26 6790 26 86640 17220 3.3 22 7 1 5 22% 2711 89920 14694 41%
c - 20.42 32 219 0 27 7152 25 91739 18715 3.3 22 7 1 5 22% 2780 89919 14694 41%
c s 20.88 32 216 0 27 7490 25 95806 22170 3.3 22 7 1 5 22% 2852 84285 14694 41%
c e 20.95 32 216 0 27 7490 25 95806 22170 3.3 22 7 1 5 22% 1688 86961 14108 39%
c 2 20.95 32 216 0 27 7490 25 95806 22170 3.3 22 7 1 5 22% 1680 86961 14108 39%
c s 20.96 32 216 0 27 7490 25 95806 22170 3.3 22 7 1 5 22% 1710 86285 14108 39%
c e 20.97 32 216 0 27 7490 25 95806 22170 3.3 22 7 1 5 22% 1651 86448 14067 39%
c ^ 20.97 32 216 0 27 7490 25 95806 22170 3.3 22 7 1 5 22% 1651 86448 14067 39%
c - 21.12 32 215 0 28 7583 25 96935 17643 3.3 22 7 1 5 22% 1681 86448 14067 39%
c - 21.76 32 211 0 29 8083 25 102226 19246 3.2 22 7 1 5 22% 1731 86445 14067 39%
c d 22.11 32 209 0 29 8369 25 104568 21247 3.2 22 7 1 5 23% 1703 86440 14038 39%
c u 22.16 32 209 0 29 8369 25 104568 19536 3.2 22 7 1 5 23% 1745 86440 14038 39%
c v 22.22 32 209 0 29 8369 25 104568 17006 3.2 22 7 1 5 23% 1762 86440 14038 39%
c w 22.30 32 209 0 29 8369 25 104568 16993 3.2 22 7 1 5 23% 1762 86440 14038 39%
c x 22.34 32 209 0 29 8369 25 104568 16990 3.2 22 7 1 5 23% 1762 86385 14038 39%
c = 22.68 32 209 0 29 8369 25 104568 16990 3.2 22 7 1 5 23% 2428 86385 13705 38%
c d 22.69 32 209 0 29 8369 25 104568 16529 3.2 22 7 1 5 23% 1660 86385 13705 38%
c t 22.69 32 209 0 29 8369 25 104568 16529 3.2 22 7 1 5 23% 1645 86385 13705 38%
c
c  seconds   switched     rate          size/glue tier1    binary         remaining
c         MB   reductions   conflicts         size  tier2     irredundant
c           level   restarts       redundant    glue   trail         variables
c
c f 22.73 32 209 0 29 8369 25 104568 16529 3.2 22 7 1 5 23% 1687 86133 13727 38%
c u 22.80 32 209 0 29 8369 25 104568 16055 3.2 22 7 1 5 23% 1707 86133 13727 38%
c v 22.83 32 209 0 29 8369 25 104568 15525 3.2 22 7 1 5 23% 1707 86133 13727 38%
c w 22.97 32 209 0 29 8369 25 104568 15203 3.2 22 7 1 5 23% 1707 86133 13727 38%
c t 23.27 32 209 0 29 8369 25 104568 15203 3.2 22 7 1 5 23% 1704 86133 13727 38%
c - 23.51 32 206 0 30 8570 25 107612 15606 3.2 22 7 1 5 22% 1743 86133 13727 38%
c o 23.92 32 204 0 30 8919 25 110544 18288 3.2 22 7 1 5 22% 1753 86132 13727 38%
c - 24.17 32 202 0 31 9100 25 113089 18067 3.2 22 7 1 5 23% 1780 86132 13727 38%
c - 25.07 32 199 0 32 9776 25 118656 20119 3.2 23 7 1 5 23% 1818 86132 13727 38%
c - 26.02 32 196 0 33 10419 25 124312 21969 3.3 23 7 1 5 24% 1856 86132 13727 38%
c - 26.86 32 195 0 34 11020 25 130056 23448 3.3 24 7 1 5 24% 1901 86132 13727 38%
c d 27.02 32 191 0 34 11089 25 132810 25906 3.3 24 7 1 5 24% 1895 86132 13712 38%
c u 27.07 32 191 0 34 11089 25 132810 23987 3.3 24 7 1 5 24% 1912 86132 13712 38%
c v 27.14 32 191 0 34 11089 25 132810 20640 3.3 24 7 1 5 24% 1917 86132 13712 38%
c w 27.20 32 191 0 34 11089 25 132810 20515 3.3 24 7 1 5 24% 1917 86132 13712 38%
c x 27.27 32 191 0 34 11089 25 132810 20480 3.3 24 7 1 5 24% 1963 82867 13712 38%
c d 27.27 32 191 0 34 11089 25 132810 20479 3.3 24 7 1 5 24% 1961 82867 13711 38%
c t 27.28 32 191 0 34 11089 25 132810 20479 3.3 24 7 1 5 24% 1918 82867 13711 38%
c u 27.34 32 191 0 34 11089 25 132810 19940 3.3 24 7 1 5 24% 1928 82867 13711 38%
c v 27.38 32 191 0 34 11089 25 132810 19267 3.3 24 7 1 5 24% 1929 82867 13711 38%
c
c  seconds   switched      rate          size/glue tier1    binary         remaining
c         MB   reductions    conflicts         size  tier2     irredundant
c           level   restarts        redundant    glue   trail         variables
c
c w 27.45 32 191 0 34 11089 25 132810 18892 3.3 24 7 1 5 24% 1929 82867 13711 38%
c x 27.54 32 191 0 34 11089 25 132810 18886 3.3 24 7 1 5 24% 1940 82686 13711 38%
c = 27.90 32 191 0 34 11089 25 132810 18886 3.3 24 7 1 5 24% 2004 82686 13679 38%
c d 27.91 32 191 0 34 11089 25 132810 18864 3.3 24 7 1 5 24% 1935 82686 13678 38%
c t 27.91 32 191 0 34 11089 25 132810 18864 3.3 24 7 1 5 24% 1923 82686 13678 38%
c f 27.92 32 191 0 34 11089 25 132810 18864 3.3 24 7 1 5 24% 1925 82670 13679 38%
c - 28.31 32 191 0 35 11392 25 135887 18940 3.3 24 7 1 5 24% 1932 82669 13679 38%
c - 29.00 32 189 0 36 11897 25 141812 21320 3.3 25 7 1 5 25% 1980 82669 13679 38%
c - 29.60 32 186 0 37 12335 24 147812 23391 3.3 25 7 1 4 25% 2030 82668 13679 38%
c - 30.42 32 183 0 38 13005 24 153894 25102 3.3 25 8 1 4 25% 2052 82668 13679 38%
c s 30.87 32 180 0 38 13349 24 157867 28813 3.3 25 8 1 4 25% 2059 82333 13679 38%
c e 30.97 32 180 0 38 13349 24 157867 28813 3.3 25 8 1 4 25% 1505 94918 12072 34%
c 2 30.97 32 180 0 38 13349 24 157867 28813 3.3 25 8 1 4 25% 1504 94918 12072 34%
c s 30.98 32 180 0 38 13349 24 157867 28813 3.3 25 8 1 4 25% 1535 92509 12072 34%
c e 31.00 32 180 0 38 13349 24 157867 28813 3.3 25 8 1 4 25% 1480 92734 12038 34%
c ^ 31.00 32 180 0 38 13349 24 157867 28813 3.3 25 8 1 4 25% 1480 92734 12038 34%
c - 31.30 32 179 0 39 13578 24 160058 20407 3.3 26 8 1 4 26% 1484 92734 12038 34%
c o 31.35 32 179 0 39 13617 24 160546 20861 3.3 26 8 1 4 26% 1485 92734 12038 34%
c c 31.89 32 177 0 39 14007 24 164791 24808 3.3 26 8 1 4 26% 1536 92647 12027 34%
c d 31.89 32 177 0 39 14007 24 164791 24786 3.3 26 8 1 4 26% 1514 92647 12027 34%
c
c  seconds   switched      rate          size/glue tier1    binary         remaining
c         MB   reductions    conflicts         size  tier2     irredundant
c           level   restarts        redundant    glue   trail         variables
c
c u 31.93 32 177 0 39 14007 24 164791 22860 3.3 26 8 1 4 26% 1515 92647 12027 34%
c v 31.98 32 177 0 39 14007 24 164791 20350 3.3 26 8 1 4 26% 1522 92647 12027 34%
c w 32.23 32 177 0 39 14007 24 164791 20087 3.3 26 8 1 4 26% 1522 92647 12027 34%
c d 32.64 32 177 0 39 14007 24 164791 20084 3.3 26 8 1 4 26% 1516 92647 12024 34%
c t 32.65 32 177 0 39 14007 24 164791 20084 3.3 26 8 1 4 26% 1488 92647 12024 34%
c u 32.75 32 177 0 39 14007 24 164791 19573 3.3 26 8 1 4 26% 1489 92647 12024 34%
c v 32.78 32 177 0 39 14007 24 164791 19068 3.3 26 8 1 4 26% 1491 92647 12024 34%
c w 32.93 32 177 0 39 14007 24 164791 18453 3.3 26 8 1 4 26% 1492 92647 12024 34%
c x 32.99 32 177 0 39 14007 24 164791 18439 3.3 26 8 1 4 26% 1513 92578 12024 34%
c t 33.00 32 177 0 39 14007 24 164791 18439 3.3 26 8 1 4 26% 1492 92578 12024 34%
c - 33.17 32 176 0 40 14133 24 166305 17344 3.3 26 8 1 4 26% 1499 92577 12024 34%
c - 33.71 32 175 0 41 14557 23 172630 20015 3.3 25 8 1 4 26% 1541 92573 12024 34%
c - 34.39 32 173 0 42 15025 23 179033 22324 3.2 25 8 1 4 26% 1570 92573 12024 34%
c - 35.15 32 169 0 43 15646 23 185514 24295 3.2 26 8 1 4 26% 1593 92573 12024 34%
c - 35.91 32 167 0 44 16226 23 192073 25751 3.2 26 8 1 4 27% 1626 92572 12024 34%
c - 36.42 32 162 0 45 16580 22 198706 26653 3.2 25 8 1 4 26% 1662 92572 12024 34%
c d 36.56 32 161 0 45 16679 22 200572 28266 3.2 25 8 1 4 26% 1594 92564 11985 33%
c u 36.61 32 161 0 45 16679 22 200572 26383 3.2 25 8 1 4 26% 1615 92564 11985 33%
c v 36.67 32 161 0 45 16679 22 200572 23215 3.2 25 8 1 4 26% 1628 92564 11985 33%
c w 36.75 32 161 0 45 16679 22 200572 22357 3.2 25 8 1 4 26% 1628 92564 11985 33%
c
c  seconds   switched      rate          size/glue tier1    binary         remaining
c         MB   reductions    conflicts         size  tier2     irredundant
c           level   restarts        redundant    glue   trail         variables
c
c d 37.13 32 161 0 45 16679 22 200572 22355 3.2 25 8 1 4 26% 1622 92564 11982 33%
c t 37.14 32 161 0 45 16679 22 200572 22355 3.2 25 8 1 4 26% 1602 92564 11982 33%
c u 37.19 32 161 0 45 16679 22 200572 21919 3.2 25 8 1 4 26% 1607 92564 11982 33%
c v 37.22 32 161 0 45 16679 22 200572 21297 3.2 25 8 1 4 26% 1611 92564 11982 33%
c w 37.28 32 161 0 45 16679 22 200572 20916 3.2 25 8 1 4 26% 1611 92564 11982 33%
c d 37.29 32 161 0 45 16679 22 200572 20913 3.2 25 8 1 4 26% 1607 92562 11980 33%
c t 37.29 32 161 0 45 16679 22 200572 20913 3.2 25 8 1 4 26% 1606 92562 11980 33%
c - 37.56 32 156 0 46 16871 21 205414 21479 3.1 25 8 1 4 26% 1635 92558 11980 33%
c - 37.98 32 151 0 47 17205 20 212196 23571 3.1 24 8 1 5 25% 1674 92558 11980 33%
c - 38.38 32 146 0 48 17509 19 219051 25220 3.0 24 8 1 5 25% 1714 92555 11980 33%
c o 38.48 32 145 0 48 17569 19 221405 27321 3.0 23 8 1 5 25% 1720 92554 11980 33%
c - 38.75 32 141 0 49 17829 19 225981 26388 2.9 23 8 1 5 24% 1753 92554 11980 33%
c i 38.85 32 138 0 49 17902 18 229263 29119 2.9 23 8 1 5 24% 1782 92554 11979 33%
c i 38.95 32 137 0 49 18007 18 230734 30410 2.9 23 8 1 5 24% 1794 92554 11978 33%
c i 39.07 32 136 0 49 18143 18 232646 32081 2.9 22 8 1 5 24% 1815 92552 11943 33%
c - 39.08 32 136 0 50 18156 18 232982 26347 2.9 22 8 1 5 23% 1768 92552 11943 33%
c i 39.08 32 136 0 50 18166 18 233121 26468 2.9 22 8 1 5 23% 1770 92552 11942 33%
c i 39.15 32 135 0 50 18239 18 234637 27843 2.9 22 8 1 5 23% 1777 92552 11941 33%
c i 39.16 32 134 0 50 18251 18 235123 28235 2.9 22 8 1 5 23% 1785 92552 11940 33%
c i 39.19 32 134 0 50 18267 17 236283 29291 2.9 22 8 1 5 23% 1794 92552 11937 33%
c
c  seconds   switched      rate          size/glue tier1    binary         remaining
c         MB   reductions    conflicts         size  tier2     irredundant
c           level   restarts        redundant    glue   trail         variables
c
c i 39.22 32 132 0 50 18276 17 237919 30688 2.8 22 8 1 5 23% 1813 92552 11934 33%
c i 39.22 32 132 0 50 18284 17 238043 30789 2.8 22 8 1 5 23% 1821 92552 11933 33%
c i 39.23 32 132 0 50 18287 17 238173 30890 2.8 22 8 1 5 23% 1828 92552 11932 33%
c i 39.23 32 132 0 50 18292 17 238348 31036 2.8 22 8 1 5 23% 1831 92552 11931 33%
c i 39.25 32 131 0 50 18310 17 239515 32054 2.8 22 8 1 5 23% 1841 92552 11930 33%
c s 39.26 32 131 0 50 18319 17 239976 32464 2.8 22 8 1 5 23% 1848 91859 11930 33%
c e 39.38 32 131 0 50 18319 17 239976 32464 2.8 22 8 1 5 23% 1333 105414 10856 30%
c 2 39.39 32 131 0 50 18319 17 239976 32464 2.8 22 8 1 5 23% 1311 105414 10856 30%
c s 39.41 32 131 0 50 18319 17 239976 32464 2.8 22 8 1 5 23% 1334 101123 10856 30%
c e 39.45 32 131 0 50 18319 17 239976 32464 2.8 22 8 1 5 23% 1278 101587 10812 30%
c ! 39.45 32 131 0 50 18319 17 239976 32464 2.8 22 8 1 5 23% 1278 101587 10812 30%
c - 39.46 32 131 0 51 18324 17 240053 19328 2.8 22 8 1 5 23% 1275 101584 10812 30%
c c 39.48 32 130 0 51 18325 17 240227 19463 2.8 22 8 1 5 23% 1292 101469 10804 30%
c d 39.49 32 130 0 51 18325 17 240227 19436 2.8 22 8 1 5 23% 1276 101469 10804 30%
c u 39.53 32 130 0 51 18325 17 240227 17669 2.8 22 8 1 5 23% 1289 101469 10803 30%
c v 39.56 32 130 0 51 18325 17 240227 15845 2.8 22 8 1 5 23% 1294 101469 10803 30%
c w 39.58 32 130 0 51 18325 17 240227 15730 2.8 22 8 1 5 23% 1294 101469 10803 30%
c x 39.61 32 130 0 51 18325 17 240227 15730 2.8 22 8 1 5 23% 1294 101450 10803 30%
c d 39.62 32 130 0 51 18325 17 240227 15724 2.8 22 8 1 5 23% 1290 101428 10801 30%
c t 39.62 32 130 0 51 18325 17 240227 15724 2.8 22 8 1 5 23% 1256 101428 10801 30%
c
c  seconds   switched      rate          size/glue tier1    binary          remaining
c         MB   reductions    conflicts         size  tier2     irredundant
c           level   restarts        redundant    glue   trail          variables
c
c f 39.68 32 130 0 51 18325 17 240227 15724 2.8 22 8 1 5 23% 1276 101242 10809 30%
c u 39.72 32 130 0 51 18325 17 240227 15507 2.8 22 8 1 5 23% 1282 101242 10809 30%
c v 39.75 32 130 0 51 18325 17 240227 15049 2.8 22 8 1 5 23% 1285 101242 10809 30%
c w 39.76 32 130 0 51 18325 17 240227 14991 2.8 22 8 1 5 23% 1285 101242 10809 30%
c i 40.01 32 130 0 51 18325 17 240227 14991 2.8 22 8 1 5 23% 1285 101242 10809 30%
c i 40.04 32 128 0 51 18343 17 242173 16579 2.8 22 8 1 5 22% 1297 101241 10808 30%
c i 40.04 32 128 0 51 18343 16 242857 17128 2.8 22 8 1 5 23% 1312 101240 10807 30%
c i 40.04 32 128 0 51 18343 16 242901 17148 2.8 22 8 1 5 23% 1316 101240 10803 30%
c i 40.04 32 128 0 51 18343 16 242902 17148 2.8 22 8 1 5 23% 1316 101240 10802 30%
c i 40.04 32 128 0 51 18343 16 242906 17148 2.8 22 8 1 5 23% 1318 101240 10799 30%
c i 40.04 32 128 0 51 18343 16 242910 17148 2.8 22 8 1 5 23% 1320 101240 10795 30%
c i 40.04 32 128 0 51 18343 16 242911 17148 2.8 22 8 1 5 23% 1320 101240 10794 30%
c i 40.04 32 128 0 51 18343 16 242912 17148 2.8 22 8 1 5 23% 1320 101240 10793 30%
c i 40.04 32 128 0 51 18343 16 242916 17149 2.8 22 8 1 5 23% 1321 101239 10786 30%
c } 40.04 32 128 0 51 18343 16 242923 17150 2.8 22 8 1 5 23% 1323 101239 10731 30%
c 0 40.04 32 128 0 51 18343 16 242923 17150 2.8 22 8 1 5 23% 1323 101239 10731 30%
c
c ---- [ result ] ------------------------------------------------------------
c
s UNSATISFIABLE
c
c ---- [ profiling ] ---------------------------------------------------------
c
c          28.28   70.61 %  search
c          28.28   70.61 %  focused
c          11.17   27.88 %  simplify
c          10.59   26.44 %  probe
c           4.51   11.27 %  sweep
c           3.85    9.61 %  vivify
c           0.84    2.11 %  eliminate
c           0.81    2.02 %  factor
c           0.68    1.69 %  congruence
c           0.58    1.45 %  substitute
c           0.54    1.34 %  preprocess
c           0.26    0.66 %  fastel
c           0.24    0.60 %  reduce
c           0.14    0.34 %  subsume
c           0.10    0.25 %  transitive
c           0.06    0.15 %  backbone
c           0.04    0.09 %  lucky
c           0.03    0.07 %  parse
c =============================================
c          40.04  100.00 %  total
c
c ---- [ statistics ] --------------------------------------------------------
c
c chronological:                         8632                4 %  conflicts
c conflicts:                           242923             6066.20 per second
c congruent:                             7651               21 %  variables
c decisions:                          4813625               19.82 per conflict
c eliminated:                           14834               41 %  variables
c factored:                              3687               10 %  variables
c fast_eliminated:                      10413               70 %  eliminated
c fast_strengthened:                       28                0 %  per strengthened
c fast_subsumed:                           65                0 %  per subsumed
c iterations:                              22                0 %  variables
c propagations:                     178626174          4460599    per second
c reductions:                              51             4763    interval
c reordered:                                7            34703    interval
c restarts:                             18343               13    interval
c strengthened:                          9543                0 %  checks
c substituted:                          13838               39 %  variables
c subsumed:                             40891                1 %  checks
c switched:                                 0                0    interval
c vivified:                             80726               12 %  checks
c
c ---- [ glue usage ] --------------------------------------------------------
c
c focused glue 1 used 473958 clauses 60.82% accumulated 60.82% tier1
c focused glue 2 used 144062 clauses 18.49% accumulated 79.31%
c focused glue 3 used  51190 clauses  6.57% accumulated 85.88%
c focused glue 4 used  27675 clauses  3.55% accumulated 89.43%
c focused glue 5 used  18761 clauses  2.41% accumulated 91.84% tier2
c
c ---- [ resources ] ---------------------------------------------------------
c
c maximum-resident-set-size:         33521664 bytes         32 MB
c process-time:                            40s              40.04 seconds
c
c ---- [ shutting down ] -----------------------------------------------------
c
c exit 20
